Version identifier: 22.1.0.0 | 2022-03-09 | 1a383f8ce
CPXPARAM_Read_DataCheck                          1
Tried aggregator 3 times.
MIP Presolve eliminated 5338 rows and 1118 columns.
MIP Presolve modified 134 coefficients.
Aggregator did 4389 substitutions.
Reduced MIP has 1158 rows, 4657 columns, and 10455 nonzeros.
Reduced MIP has 4643 binaries, 14 generals, 0 SOSs, and 0 indicators.
Presolve time = 0.03 sec. (34.00 ticks)
Probing fixed 21 vars, tightened 0 bounds.
Probing changed sense of 4 constraints.
Probing time = 0.01 sec. (1.54 ticks)
Tried aggregator 2 times.
Detecting symmetries...
MIP Presolve eliminated 19 rows and 26 columns.
Aggregator did 9 substitutions.
Reduced MIP has 1130 rows, 4622 columns, and 10337 nonzeros.
Reduced MIP has 4608 binaries, 14 generals, 0 SOSs, and 0 indicators.
Presolve time = 0.01 sec. (10.63 ticks)
Probing fixed 3 vars, tightened 0 bounds.
Probing time = 0.01 sec. (1.79 ticks)
Clique table members: 9638.
MIP emphasis: balance optimality and feasibility.
MIP search method: dynamic search.
Parallel mode: deterministic, using up to 8 threads.
Root relaxation solution time = 0.09 sec. (27.99 ticks)

        Nodes                                         Cuts/
   Node  Left     Objective  IInf  Best Integer    Best Bound    ItCnt     Gap

      0     0       14.4158   808                     14.4158      957         
      0     0       22.0000   334                    Cuts: 56     1905         
*     0+    0                           24.0000       22.0000             8.33%
      0     0       22.0000   358       24.0000      Cuts: 45     2805    8.33%
      0     0       22.0000   237       24.0000       Cuts: 4     3033    8.33%
      0     0       22.0000   298       24.0000      Cuts: 20     3342    8.33%
      0     2       22.0000   298       24.0000       22.0000     3342    8.33%
Elapsed time = 2.10 sec. (1653.43 ticks, tree = 0.02 MB, solutions = 1)
      6     7       22.0000    41       24.0000       22.0000     5963    8.33%
*    10+    7                           23.0000       22.0000             4.35%
*    37    12      integral     0       22.0000       22.0000    12739    0.00%
     40    10       22.0000   289       22.0000       22.0000    17688    0.00%

Clique cuts applied:  1
Zero-half cuts applied:  34
Lift and project cuts applied:  4
Gomory fractional cuts applied:  16

Root node processing (before b&c):
  Real time             =    2.09 sec. (1648.99 ticks)
Parallel b&c, 8 threads:
  Real time             =    0.77 sec. (570.15 ticks)
  Sync time (average)   =    0.29 sec.
  Wait time (average)   =    0.00 sec.
                          ------------
Total (root+branch&cut) =    2.86 sec. (2219.14 ticks)
Version identifier: 22.1.0.0 | 2022-03-09 | 1a383f8ce
CPXPARAM_Read_DataCheck                          1
Tried aggregator 3 times.
MIP Presolve eliminated 5338 rows and 1118 columns.
MIP Presolve modified 134 coefficients.
Aggregator did 4389 substitutions.
Reduced MIP has 1158 rows, 4657 columns, and 10455 nonzeros.
Reduced MIP has 4643 binaries, 14 generals, 0 SOSs, and 0 indicators.
Presolve time = 0.03 sec. (34.00 ticks)
Probing fixed 21 vars, tightened 0 bounds.
Probing changed sense of 4 constraints.
Probing time = 0.01 sec. (1.54 ticks)
Tried aggregator 2 times.
Detecting symmetries...
MIP Presolve eliminated 19 rows and 26 columns.
Aggregator did 9 substitutions.
Reduced MIP has 1130 rows, 4622 columns, and 10337 nonzeros.
Reduced MIP has 4608 binaries, 14 generals, 0 SOSs, and 0 indicators.
Presolve time = 0.01 sec. (10.63 ticks)
Probing fixed 3 vars, tightened 0 bounds.
Probing time = 0.01 sec. (1.79 ticks)
Clique table members: 9638.
MIP emphasis: balance optimality and feasibility.
MIP search method: dynamic search.
Parallel mode: deterministic, using up to 8 threads.
Root relaxation solution time = 0.05 sec. (27.99 ticks)

        Nodes                                         Cuts/
   Node  Left     Objective  IInf  Best Integer    Best Bound    ItCnt     Gap

      0     0       14.4158   808                     14.4158      957         
      0     0       22.0000   334                    Cuts: 56     1905         
*     0+    0                           24.0000       22.0000             8.33%
      0     0       22.0000   358       24.0000      Cuts: 45     2805    8.33%
      0     0       22.0000   237       24.0000       Cuts: 4     3033    8.33%
      0     0       22.0000   298       24.0000      Cuts: 20     3342    8.33%
      0     2       22.0000   298       24.0000       22.0000     3342    8.33%
Elapsed time = 2.06 sec. (1653.43 ticks, tree = 0.02 MB, solutions = 1)
      6     7       22.0000    41       24.0000       22.0000     5963    8.33%
*    10+    7                           23.0000       22.0000             4.35%
*    37    12      integral     0       22.0000       22.0000    12739    0.00%
     40    10       22.0000   289       22.0000       22.0000    17688    0.00%

Clique cuts applied:  1
Zero-half cuts applied:  34
Lift and project cuts applied:  4
Gomory fractional cuts applied:  16

Root node processing (before b&c):
  Real time             =    2.04 sec. (1648.99 ticks)
Parallel b&c, 8 threads:
  Real time             =    0.78 sec. (570.15 ticks)
  Sync time (average)   =    0.28 sec.
  Wait time (average)   =    0.00 sec.
                          ------------
Total (root+branch&cut) =    2.82 sec. (2219.14 ticks)
